Route #1: 8 46 54 5 6 29 27 47
Route #2: 28 60 1 16 48 19
Route #3: 38 30
Route #4: 20 36 56 15 42 32 43
Route #5: 33 26 4 22 55 7 9
Route #6: 23 3 10 49 53 41
Route #7: 58 21 18 35 34 51 14
Route #8: 13 17 57 52 44 11 31 12
Route #9: 39 25 40 2 45 37 59 24 50
cost 1411.07958984375